81 108
1 2
1 3
1 4
1 5
1 6
1 7
1 8
1 9
1 10
1 11
1 23
1 19
1 20
1 21
1 28
1 37
1 46
1 55
1 64
1 73
2 3
2 4
2 5
2 6
2 7
2 8
2 9
2 10
2 11
2 12
2 19
2 20
2 21
2 29
2 38
2 47
2 56
2 65
2 74
3 4
3 5
3 6
3 7
3 8
3 9
3 10
3 11
3 12
3 21
3 30
3 39
3 48
3 57
3 66
3 75
4 5
4 6
4 7
4 8
4 9
4 13
4 22
4 31
4 40
4 49
4 58
4 67
4 76
5 6
5 7
5 8
5 9
5 14
5 23
5 32
5 41
5 50
5 59
5 68
5 77
6 7
6 8
6 9
6 15
6 24
6 33
6 42
6 51
6 60
6 69
6 78
7 8
7 9
7 16
7 25
7 34
7 43
7 52
7 61
7 70
7 79
8 9
8 17
8 26
8 35
8 44
8 53
8 62
8 71
8 80
9 18
9 27
9 36
9 45
9 54
9 63
9 72
9 81
0 0 1 0 0 0 0 0 4 0 2 3 1 0 0 9 0 0 0 8 6 0 5 0 3 0 0 0 6 0 0 4 0 0 0 0 3 0 0 9 0 1 0 0 5 0 0 0 0 7 0 0 3 0 0 0 4 0 3 0 6 1 0 0 0 2 0 0 5 8 4 0 7 0 0 0 0 0 5 0 0
